************************************************************************
file with basedata            : md382_.bas
initial value random generator: 1760975376
************************************************************************
projects                      :  1
jobs (incl. supersource/sink ):  22
horizon                       :  147
RESOURCES
  - renewable                 :  2   R
  - nonrenewable              :  2   N
  - doubly constrained        :  0   D
************************************************************************
PROJECT INFORMATION:
pronr.  #jobs rel.date duedate tardcost  MPM-Time
    1     20      0       25        7       25
************************************************************************
PRECEDENCE RELATIONS:
jobnr.    #modes  #successors   successors
   1        1          3           2   3   4
   2        3          3           5   6  12
   3        3          2           9  12
   4        3          3           9  11  17
   5        3          1           7
   6        3          3           8   9  16
   7        3          2          15  17
   8        3          1          10
   9        3          3          19  20  21
  10        3          3          13  14  17
  11        3          3          12  13  15
  12        3          1          20
  13        3          1          18
  14        3          1          21
  15        3          2          16  21
  16        3          2          18  19
  17        3          2          18  19
  18        3          1          20
  19        3          1          22
  20        3          1          22
  21        3          1          22
  22        1          0        
************************************************************************
REQUESTS/DURATIONS:
jobnr. mode duration  R 1  R 2  N 1  N 2
------------------------------------------------------------------------
  1      1     0       0    0    0    0
  2      1     1       8    8    3    8
         2     7       6    7    2    7
         3     9       6    4    2    5
  3      1     2       7    8    8    5
         2     4       7    6    8    4
         3     9       6    5    7    3
  4      1     2       6    5    7    6
         2     4       6    5    5    5
         3    10       5    5    3    4
  5      1     4       6    6    5    9
         2     4       6    9    5    8
         3     9       6    2    5    6
  6      1     2      10    5    5    7
         2     2       9    4    5    9
         3     3       8    4    4    6
  7      1     6       7    6   10    8
         2     7       7    4    9    5
         3     9       6    2    9    4
  8      1     3       3    6    4    6
         2     6       3    3    4    6
         3     9       2    1    3    5
  9      1     8       5    9    8   10
         2    10       2    7    6    7
         3    10       4    9    6    6
 10      1     1       3   10    6    8
         2     5       3    8    5    8
         3     8       2    6    4    7
 11      1     1       5    8    9    7
         2     2       5    5    8    6
         3     8       4    4    7    6
 12      1     2       5    8    9    7
         2     3       4    8    7    5
         3     4       3    7    5    5
 13      1     5       2    8    7    4
         2     6       2    7    7    4
         3     8       1    4    6    4
 14      1     5       9    9    5    7
         2     8       8    8    2    6
         3     9       8    5    2    4
 15      1     3       8    9    5    8
         2     5       5    5    4    5
         3     5       5    7    3    6
 16      1     2       9   10    4    5
         2     6       5    8    3    3
         3     6       3    8    4    2
 17      1     5       3    5    3   10
         2     5       4    4    3   10
         3     7       2    3    2   10
 18      1     5       7    6    7    9
         2     5       7    4    8   10
         3     6       7    4    5    7
 19      1     1       7    8    9    9
         2     1       6    8   10    9
         3     3       6    4    7    8
 20      1     4       4    6    7    9
         2     5       3    5    6    8
         3     6       3    4    4    8
 21      1     1       7    5    4    6
         2     4       5    2    3    6
         3     9       3    2    2    6
 22      1     0       0    0    0    0
************************************************************************
RESOURCEAVAILABILITIES:
  R 1  R 2  N 1  N 2
   19   20  127  151
************************************************************************
MAXIMAL LAGS:
from  to  type  delay
    1   22   ES      0
    1    2   ES      0
    2   22   ES      0
    1    3   ES      0
    3   22   ES      0
    1    4   ES      0
    4   22   ES      0
    1    5   ES      0
    5   22   ES      0
    1    6   ES      0
    6   22   ES      0
    1    7   ES      0
    7   22   ES      0
    1    8   ES      0
    8   22   ES      0
    1    9   ES      0
    9   22   ES      0
    1   10   ES      0
   10   22   ES      0
    1   11   ES      0
   11   22   ES      0
    1   12   ES      0
   12   22   ES      0
    1   13   ES      0
   13   22   ES      0
    1   14   ES      0
   14   22   ES      0
    1   15   ES      0
   15   22   ES      0
    1   16   ES      0
   16   22   ES      0
    1   17   ES      0
   17   22   ES      0
    1   18   ES      0
   18   22   ES      0
    1   19   ES      0
   19   22   ES      0
    1   20   ES      0
   20   22   ES      0
    1   21   ES      0
   21   22   ES      0
    1   22   ES      0
    2    5   SS     -5
    2    5   SE      6
    2    5   ES    -11
    2    5   EE     -6
    2    6   SS      3
    2    6   SE     -9
    2    6   ES     -2
    2    6   EE      8
    2   12   SS     -1
    2   12   SE      4
   12    2   SE      0
    2   12   ES      0
    2   12   EE    -12
    3    9   SS     -7
    3    9   SE      0
    3    9   ES     -3
    3    9   EE     -8
    3   12   SS     -6
    3   12   SE      0
    3   12   ES     -7
    3   12   EE     11
    4    9   SS     -3
    4    9   SE     -2
    4    9   ES      4
    4    9   EE      5
    4   11   SS     11
    4   11   SE     -3
    4   11   ES     10
    4   11   EE      0
    4   17   SS     11
    4   17   SE      6
    4   17   ES     -6
    4   17   EE      2
    5    7   SS    -10
    5    7   SE     -4
    5    7   ES      2
    5    7   EE      8
    6    8   SS      5
    6    8   SE      3
    6    8   ES     -1
    6    8   EE    -12
    6    9   SS      4
    6    9   SE      9
    6    9   ES    -12
    6    9   EE     -1
    6   16   SS      8
    6   16   SE     10
    6   16   ES      2
    6   16   EE      8
    7   15   SS    -10
    7   15   SE    -10
    7   15   ES      3
    7   15   EE      4
    7   17   SS     -4
    7   17   SE      8
    7   17   ES     -3
    7   17   EE     -4
    8   10   SS    -11
    8   10   SE    -11
    8   10   ES     -8
    8   10   EE     11
    9   19   SS      3
    9   19   SE     -4
    9   19   ES     12
    9   19   EE      4
    9   20   SS      7
    9   20   SE     -4
    9   20   ES     -7
    9   20   EE     -4
    9   21   SS     -3
    9   21   SE     -5
    9   21   ES      2
    9   21   EE      7
   10   13   SS     -6
   10   13   SE      0
   10   13   ES      0
   10   13   EE      1
   10   14   SS    -11
   10   14   SE     -3
   10   14   ES     -3
   10   14   EE      5
   10   17   SS     12
   10   17   SE      0
   10   17   ES     11
   10   17   EE      2
   11   12   SS     -9
   11   12   SE     -9
   11   12   ES      5
   11   12   EE      4
   11   13   SS    -10
   11   13   SE      1
   11   13   ES    -10
   11   13   EE      4
   11   15   SS     -7
   11   15   SE     11
   11   15   ES      3
   11   15   EE     10
   12   20   SS      2
   12   20   SE      8
   12   20   ES     -5
   12   20   EE     -3
   13   18   SS      2
   13   18   SE      2
   13   18   ES     -3
   13   18   EE      6
   14   21   SS      1
   14   21   SE      2
   14   21   ES      4
   14   21   EE     11
   15   16   SS     -3
   15   16   SE     -1
   15   16   ES     10
   15   16   EE     -8
   15   21   SS      2
   15   21   SE     -5
   15   21   ES     10
   15   21   EE     -5
   16   18   SS      8
   16   18   SE      8
   16   18   ES      8
   16   18   EE     -9
   16   19   SS      8
   16   19   SE      4
   16   19   ES      4
   16   19   EE     -9
   17   18   SS     -2
   17   18   SE      1
   17   18   ES      3
   17   18   EE     -2
   17   19   SS     -3
   17   19   SE     -9
   17   19   ES     -6
   17   19   EE     -2
   18   20   SS     -4
   18   20   SE      8
   18   20   ES     12
   18   20   EE      8
************************************************************************
